rows = 10;
columns = 10;
steps = 8;
board = array2d(1..rows, 1..columns,
[
0,0,0,0,0,0,0,0,0,0,
0,0,0,0,0,5,0,0,0,0,
0,0,0,0,0,0,4,0,0,0,
0,0,0,0,3,0,0,0,0,0,
0,0,0,0,0,0,0,0,0,0,
0,0,0,0,0,0,0,0,0,0,
0,0,0,0,0,0,0,0,0,0,
0,0,0,0,0,0,0,0,0,0,
0,10,0,0,0,0,0,0,0,0,
0,0,0,0,0,0,0,0,0,0,
]);